91 91
25 28
46 12
39 41
79 39
60 10
55 28
54 38
87 35
58 4
42 24
65 42
5 44
82 13
67 21
68 3
26 6
2 42
27 13
73 2
22 45
61 26
57 41
18 15
69 14
24 45
48 23
16 19
63 36
15 30
3 20
41 22
76 43
75 9
14 33
84 17
50 16
38 17
74 30
30 4
89 2
70 23
40 35
62 39
7 32
43 29
71 34
12 40
20 8
31 32
34 46
88 14
8 34
83 18
29 7
91 1
1 25
52 9
33 12
51 24
19 37
59 11
28 16
6 6
64 10
81 7
37 27
35 1
53 33
77 20
47 11
85 21
80 15
9 38
78 25
4 29
56 26
21 40
45 44
86 43
49 36
10 18
17 31
23 5
13 31
90 22
36 3
44 5
72 8
66 37
11 27
32 19
